n=20;
demand=2;
horizon=20;
est=[12,3,7,15,8,8,1,19,4,12,9,0,18,12,19,10,8,11,17,0];
processing_time=[3,11,4,4,10,7,7,1,16,1,9,3,2,7,1,4,4,4,2,7];
lct=[16,16,16,19,20,19,16,20,20,17,18,19,20,20,20,18,13,15,20,12];


